db/data/22682531519305147475273126540143454.z3.out
sat
-------------------
332.480113041
